# Objective value = 6
x0,1_6 0
x0,1_13 0
x0,1_18 1
x0,1_19 0
x0,1_25 0
x0,1_29 0
x0,1_37 0
x0,1_38 0
x0,1_42 0
x0,1_43 0
x0,1_48 0
x0,1_56 0
x0,1_67 0
x0,1_85 0
x0,2_6 0
x0,2_13 0
x0,2_18 0
x0,2_19 0
x0,2_25 0
x0,2_29 0
x0,2_37 1
x0,2_38 0
x0,2_42 0
x0,2_43 0
x0,2_48 0
x0,2_56 0
x0,2_67 0
x0,2_85 0
x0,3_6 0
x0,3_13 0
x0,3_18 0
x0,3_19 0
x0,3_25 0
x0,3_29 0
x0,3_37 0
x0,3_38 0
x0,3_42 0
x0,3_43 1
x0,3_48 0
x0,3_56 0
x0,3_67 0
x0,3_85 0
x0,4_6 0
x0,4_13 0
x0,4_18 0
x0,4_19 0
x0,4_25 0
x0,4_29 0
x0,4_37 0
x0,4_38 0
x0,4_42 0
x0,4_43 0
x0,4_48 0
x0,4_56 1
x0,4_67 0
x0,4_85 0
x0,5_6 0
x0,5_13 0
x0,5_18 0
x0,5_19 0
x0,5_25 0
x0,5_29 0
x0,5_37 0
x0,5_38 0
x0,5_42 0
x0,5_43 0
x0,5_48 0
x0,5_56 0
x0,5_67 0
x0,5_85 1
x0,6_6 0
x0,6_13 0
x0,6_18 0
x0,6_19 0
x0,6_25 0
x0,6_29 0
x0,6_37 0
x0,6_38 0
x0,6_42 0
x0,6_43 0
x0,6_48 0
x0,6_56 0
x0,6_67 0
x0,6_85 0
x0,7_6 0
x0,7_13 0
x0,7_18 0
x0,7_19 0
x0,7_25 0
x0,7_29 0
x0,7_37 0
x0,7_38 0
x0,7_42 0
x0,7_43 0
x0,7_48 0
x0,7_56 0
x0,7_67 0
x0,7_85 0
x0,8_6 0
x0,8_13 0
x0,8_18 0
x0,8_19 0
x0,8_25 0
x0,8_29 0
x0,8_37 0
x0,8_38 0
x0,8_42 0
x0,8_43 0
x0,8_48 0
x0,8_56 0
x0,8_67 0
x0,8_85 0
x0,9_6 0
x0,9_13 0
x0,9_18 0
x0,9_19 0
x0,9_25 0
x0,9_29 0
x0,9_37 0
x0,9_38 0
x0,9_42 0
x0,9_43 0
x0,9_48 0
x0,9_56 0
x0,9_67 0
x0,9_85 0
x0,10_6 0
x0,10_13 0
x0,10_18 0
x0,10_19 0
x0,10_25 0
x0,10_29 0
x0,10_37 0
x0,10_38 0
x0,10_42 0
x0,10_43 0
x0,10_48 0
x0,10_56 0
x0,10_67 0
x0,10_85 0
x0,11_6 0
x0,11_13 0
x0,11_18 0
x0,11_19 0
x0,11_25 0
x0,11_29 0
x0,11_37 0
x0,11_38 0
x0,11_42 0
x0,11_43 0
x0,11_48 0
x0,11_56 0
x0,11_67 0
x0,11_85 0
x0,12_6 0
x0,12_13 0
x0,12_18 0
x0,12_19 0
x0,12_25 0
x0,12_29 0
x0,12_37 0
x0,12_38 0
x0,12_42 0
x0,12_43 0
x0,12_48 0
x0,12_56 0
x0,12_67 0
x0,12_85 0
x0,13_6 0
x0,13_13 0
x0,13_18 0
x0,13_19 0
x0,13_25 0
x0,13_29 0
x0,13_37 0
x0,13_38 0
x0,13_42 0
x0,13_43 0
x0,13_48 0
x0,13_56 0
x0,13_67 0
x0,13_85 0
x0,14_6 0
x0,14_13 0
x0,14_18 0
x0,14_19 0
x0,14_25 0
x0,14_29 0
x0,14_37 0
x0,14_38 0
x0,14_42 0
x0,14_43 0
x0,14_48 0
x0,14_56 0
x0,14_67 0
x0,14_85 0
x0,15_6 0
x0,15_13 0
x0,15_18 0
x0,15_19 0
x0,15_25 0
x0,15_29 0
x0,15_37 0
x0,15_38 0
x0,15_42 0
x0,15_43 0
x0,15_48 0
x0,15_56 0
x0,15_67 0
x0,15_85 0
x1,2_6 0
x1,2_13 0
x1,2_18 0
x1,2_19 1
x1,2_25 0
x1,2_29 0
x1,2_37 0
x1,2_38 0
x1,2_42 0
x1,2_43 0
x1,2_48 0
x1,2_56 0
x1,2_67 0
x1,2_85 0
x1,3_6 0
x1,3_13 0
x1,3_18 0
x1,3_19 0
x1,3_25 1
x1,3_29 0
x1,3_37 0
x1,3_38 0
x1,3_42 0
x1,3_43 0
x1,3_48 0
x1,3_56 0
x1,3_67 0
x1,3_85 0
x1,4_6 0
x1,4_13 0
x1,4_18 0
x1,4_19 0
x1,4_25 0
x1,4_29 0
x1,4_37 0
x1,4_38 1
x1,4_42 0
x1,4_43 0
x1,4_48 0
x1,4_56 0
x1,4_67 0
x1,4_85 0
x1,5_6 0
x1,5_13 0
x1,5_18 0
x1,5_19 0
x1,5_25 0
x1,5_29 0
x1,5_37 0
x1,5_38 0
x1,5_42 0
x1,5_43 0
x1,5_48 0
x1,5_56 0
x1,5_67 1
x1,5_85 0
x1,6_6 0
x1,6_13 0
x1,6_18 0
x1,6_19 0
x1,6_25 0
x1,6_29 0
x1,6_37 0
x1,6_38 0
x1,6_42 0
x1,6_43 0
x1,6_48 0
x1,6_56 0
x1,6_67 0
x1,6_85 0
x1,7_6 0
x1,7_13 0
x1,7_18 0
x1,7_19 0
x1,7_25 0
x1,7_29 0
x1,7_37 0
x1,7_38 0
x1,7_42 0
x1,7_43 0
x1,7_48 0
x1,7_56 0
x1,7_67 0
x1,7_85 0
x1,8_6 0
x1,8_13 0
x1,8_18 0
x1,8_19 0
x1,8_25 0
x1,8_29 0
x1,8_37 0
x1,8_38 0
x1,8_42 0
x1,8_43 0
x1,8_48 0
x1,8_56 0
x1,8_67 0
x1,8_85 0
x1,9_6 0
x1,9_13 0
x1,9_18 0
x1,9_19 0
x1,9_25 0
x1,9_29 0
x1,9_37 0
x1,9_38 0
x1,9_42 0
x1,9_43 0
x1,9_48 0
x1,9_56 0
x1,9_67 0
x1,9_85 0
x1,10_6 0
x1,10_13 0
x1,10_18 0
x1,10_19 0
x1,10_25 0
x1,10_29 0
x1,10_37 0
x1,10_38 0
x1,10_42 0
x1,10_43 0
x1,10_48 0
x1,10_56 0
x1,10_67 0
x1,10_85 0
x1,11_6 0
x1,11_13 0
x1,11_18 0
x1,11_19 0
x1,11_25 0
x1,11_29 0
x1,11_37 0
x1,11_38 0
x1,11_42 0
x1,11_43 0
x1,11_48 0
x1,11_56 0
x1,11_67 0
x1,11_85 0
x1,12_6 0
x1,12_13 0
x1,12_18 0
x1,12_19 0
x1,12_25 0
x1,12_29 0
x1,12_37 0
x1,12_38 0
x1,12_42 0
x1,12_43 0
x1,12_48 0
x1,12_56 0
x1,12_67 0
x1,12_85 0
x1,13_6 0
x1,13_13 0
x1,13_18 0
x1,13_19 0
x1,13_25 0
x1,13_29 0
x1,13_37 0
x1,13_38 0
x1,13_42 0
x1,13_43 0
x1,13_48 0
x1,13_56 0
x1,13_67 0
x1,13_85 0
x1,14_6 0
x1,14_13 0
x1,14_18 0
x1,14_19 0
x1,14_25 0
x1,14_29 0
x1,14_37 0
x1,14_38 0
x1,14_42 0
x1,14_43 0
x1,14_48 0
x1,14_56 0
x1,14_67 0
x1,14_85 0
x1,15_6 0
x1,15_13 0
x1,15_18 0
x1,15_19 0
x1,15_25 0
x1,15_29 0
x1,15_37 0
x1,15_38 0
x1,15_42 0
x1,15_43 0
x1,15_48 0
x1,15_56 0
x1,15_67 0
x1,15_85 0
x2,3_6 1
x2,3_13 0
x2,3_18 0
x2,3_19 0
x2,3_25 0
x2,3_29 0
x2,3_37 0
x2,3_38 0
x2,3_42 0
x2,3_43 0
x2,3_48 0
x2,3_56 0
x2,3_67 0
x2,3_85 0
x2,4_6 0
x2,4_13 0
x2,4_18 0
x2,4_19 1
x2,4_25 0
x2,4_29 0
x2,4_37 0
x2,4_38 0
x2,4_42 0
x2,4_43 0
x2,4_48 0
x2,4_56 0
x2,4_67 0
x2,4_85 0
x2,5_6 0
x2,5_13 0
x2,5_18 0
x2,5_19 0
x2,5_25 0
x2,5_29 0
x2,5_37 0
x2,5_38 0
x2,5_42 0
x2,5_43 0
x2,5_48 1
x2,5_56 0
x2,5_67 0
x2,5_85 0
x2,6_6 0
x2,6_13 0
x2,6_18 0
x2,6_19 0
x2,6_25 0
x2,6_29 0
x2,6_37 0
x2,6_38 0
x2,6_42 0
x2,6_43 0
x2,6_48 0
x2,6_56 0
x2,6_67 0
x2,6_85 0
x2,7_6 0
x2,7_13 0
x2,7_18 0
x2,7_19 0
x2,7_25 0
x2,7_29 0
x2,7_37 0
x2,7_38 0
x2,7_42 0
x2,7_43 0
x2,7_48 0
x2,7_56 0
x2,7_67 0
x2,7_85 0
x2,8_6 0
x2,8_13 0
x2,8_18 0
x2,8_19 0
x2,8_25 0
x2,8_29 0
x2,8_37 0
x2,8_38 0
x2,8_42 0
x2,8_43 0
x2,8_48 0
x2,8_56 0
x2,8_67 0
x2,8_85 0
x2,9_6 0
x2,9_13 0
x2,9_18 0
x2,9_19 0
x2,9_25 0
x2,9_29 0
x2,9_37 0
x2,9_38 0
x2,9_42 0
x2,9_43 0
x2,9_48 0
x2,9_56 0
x2,9_67 0
x2,9_85 0
x2,10_6 0
x2,10_13 0
x2,10_18 0
x2,10_19 0
x2,10_25 0
x2,10_29 0
x2,10_37 0
x2,10_38 0
x2,10_42 0
x2,10_43 0
x2,10_48 0
x2,10_56 0
x2,10_67 0
x2,10_85 0
x2,11_6 0
x2,11_13 0
x2,11_18 0
x2,11_19 0
x2,11_25 0
x2,11_29 0
x2,11_37 0
x2,11_38 0
x2,11_42 0
x2,11_43 0
x2,11_48 0
x2,11_56 0
x2,11_67 0
x2,11_85 0
x2,12_6 0
x2,12_13 0
x2,12_18 0
x2,12_19 0
x2,12_25 0
x2,12_29 0
x2,12_37 0
x2,12_38 0
x2,12_42 0
x2,12_43 0
x2,12_48 0
x2,12_56 0
x2,12_67 0
x2,12_85 0
x2,13_6 0
x2,13_13 0
x2,13_18 0
x2,13_19 0
x2,13_25 0
x2,13_29 0
x2,13_37 0
x2,13_38 0
x2,13_42 0
x2,13_43 0
x2,13_48 0
x2,13_56 0
x2,13_67 0
x2,13_85 0
x2,14_6 0
x2,14_13 0
x2,14_18 0
x2,14_19 0
x2,14_25 0
x2,14_29 0
x2,14_37 0
x2,14_38 0
x2,14_42 0
x2,14_43 0
x2,14_48 0
x2,14_56 0
x2,14_67 0
x2,14_85 0
x2,15_6 0
x2,15_13 0
x2,15_18 0
x2,15_19 0
x2,15_25 0
x2,15_29 0
x2,15_37 0
x2,15_38 0
x2,15_42 0
x2,15_43 0
x2,15_48 0
x2,15_56 0
x2,15_67 0
x2,15_85 0
x3,4_6 0
x3,4_13 1
x3,4_18 0
x3,4_19 0
x3,4_25 0
x3,4_29 0
x3,4_37 0
x3,4_38 0
x3,4_42 0
x3,4_43 0
x3,4_48 0
x3,4_56 0
x3,4_67 0
x3,4_85 0
x3,5_6 0
x3,5_13 0
x3,5_18 0
x3,5_19 0
x3,5_25 0
x3,5_29 0
x3,5_37 0
x3,5_38 0
x3,5_42 1
x3,5_43 0
x3,5_48 0
x3,5_56 0
x3,5_67 0
x3,5_85 0
x3,6_6 0
x3,6_13 0
x3,6_18 0
x3,6_19 0
x3,6_25 0
x3,6_29 0
x3,6_37 0
x3,6_38 0
x3,6_42 0
x3,6_43 0
x3,6_48 0
x3,6_56 0
x3,6_67 0
x3,6_85 0
x3,7_6 0
x3,7_13 0
x3,7_18 0
x3,7_19 0
x3,7_25 0
x3,7_29 0
x3,7_37 0
x3,7_38 0
x3,7_42 0
x3,7_43 0
x3,7_48 0
x3,7_56 0
x3,7_67 0
x3,7_85 0
x3,8_6 0
x3,8_13 0
x3,8_18 0
x3,8_19 0
x3,8_25 0
x3,8_29 0
x3,8_37 0
x3,8_38 0
x3,8_42 0
x3,8_43 0
x3,8_48 0
x3,8_56 0
x3,8_67 0
x3,8_85 0
x3,9_6 0
x3,9_13 0
x3,9_18 0
x3,9_19 0
x3,9_25 0
x3,9_29 0
x3,9_37 0
x3,9_38 0
x3,9_42 0
x3,9_43 0
x3,9_48 0
x3,9_56 0
x3,9_67 0
x3,9_85 0
x3,10_6 0
x3,10_13 0
x3,10_18 0
x3,10_19 0
x3,10_25 0
x3,10_29 0
x3,10_37 0
x3,10_38 0
x3,10_42 0
x3,10_43 0
x3,10_48 0
x3,10_56 0
x3,10_67 0
x3,10_85 0
x3,11_6 0
x3,11_13 0
x3,11_18 0
x3,11_19 0
x3,11_25 0
x3,11_29 0
x3,11_37 0
x3,11_38 0
x3,11_42 0
x3,11_43 0
x3,11_48 0
x3,11_56 0
x3,11_67 0
x3,11_85 0
x3,12_6 0
x3,12_13 0
x3,12_18 0
x3,12_19 0
x3,12_25 0
x3,12_29 0
x3,12_37 0
x3,12_38 0
x3,12_42 0
x3,12_43 0
x3,12_48 0
x3,12_56 0
x3,12_67 0
x3,12_85 0
x3,13_6 0
x3,13_13 0
x3,13_18 0
x3,13_19 0
x3,13_25 0
x3,13_29 0
x3,13_37 0
x3,13_38 0
x3,13_42 0
x3,13_43 0
x3,13_48 0
x3,13_56 0
x3,13_67 0
x3,13_85 0
x3,14_6 0
x3,14_13 0
x3,14_18 0
x3,14_19 0
x3,14_25 0
x3,14_29 0
x3,14_37 0
x3,14_38 0
x3,14_42 0
x3,14_43 0
x3,14_48 0
x3,14_56 0
x3,14_67 0
x3,14_85 0
x3,15_6 0
x3,15_13 0
x3,15_18 0
x3,15_19 0
x3,15_25 0
x3,15_29 0
x3,15_37 0
x3,15_38 0
x3,15_42 0
x3,15_43 0
x3,15_48 0
x3,15_56 0
x3,15_67 0
x3,15_85 0
x4,5_6 0
x4,5_13 0
x4,5_18 0
x4,5_19 0
x4,5_25 0
x4,5_29 1
x4,5_37 0
x4,5_38 0
x4,5_42 0
x4,5_43 0
x4,5_48 0
x4,5_56 0
x4,5_67 0
x4,5_85 0
x4,6_6 0
x4,6_13 0
x4,6_18 0
x4,6_19 0
x4,6_25 0
x4,6_29 0
x4,6_37 0
x4,6_38 0
x4,6_42 0
x4,6_43 0
x4,6_48 0
x4,6_56 0
x4,6_67 0
x4,6_85 0
x4,7_6 0
x4,7_13 0
x4,7_18 0
x4,7_19 0
x4,7_25 0
x4,7_29 0
x4,7_37 0
x4,7_38 0
x4,7_42 0
x4,7_43 0
x4,7_48 0
x4,7_56 0
x4,7_67 0
x4,7_85 0
x4,8_6 0
x4,8_13 0
x4,8_18 0
x4,8_19 0
x4,8_25 0
x4,8_29 0
x4,8_37 0
x4,8_38 0
x4,8_42 0
x4,8_43 0
x4,8_48 0
x4,8_56 0
x4,8_67 0
x4,8_85 0
x4,9_6 0
x4,9_13 0
x4,9_18 0
x4,9_19 0
x4,9_25 0
x4,9_29 0
x4,9_37 0
x4,9_38 0
x4,9_42 0
x4,9_43 0
x4,9_48 0
x4,9_56 0
x4,9_67 0
x4,9_85 0
x4,10_6 0
x4,10_13 0
x4,10_18 0
x4,10_19 0
x4,10_25 0
x4,10_29 0
x4,10_37 0
x4,10_38 0
x4,10_42 0
x4,10_43 0
x4,10_48 0
x4,10_56 0
x4,10_67 0
x4,10_85 0
x4,11_6 0
x4,11_13 0
x4,11_18 0
x4,11_19 0
x4,11_25 0
x4,11_29 0
x4,11_37 0
x4,11_38 0
x4,11_42 0
x4,11_43 0
x4,11_48 0
x4,11_56 0
x4,11_67 0
x4,11_85 0
x4,12_6 0
x4,12_13 0
x4,12_18 0
x4,12_19 0
x4,12_25 0
x4,12_29 0
x4,12_37 0
x4,12_38 0
x4,12_42 0
x4,12_43 0
x4,12_48 0
x4,12_56 0
x4,12_67 0
x4,12_85 0
x4,13_6 0
x4,13_13 0
x4,13_18 0
x4,13_19 0
x4,13_25 0
x4,13_29 0
x4,13_37 0
x4,13_38 0
x4,13_42 0
x4,13_43 0
x4,13_48 0
x4,13_56 0
x4,13_67 0
x4,13_85 0
x4,14_6 0
x4,14_13 0
x4,14_18 0
x4,14_19 0
x4,14_25 0
x4,14_29 0
x4,14_37 0
x4,14_38 0
x4,14_42 0
x4,14_43 0
x4,14_48 0
x4,14_56 0
x4,14_67 0
x4,14_85 0
x4,15_6 0
x4,15_13 0
x4,15_18 0
x4,15_19 0
x4,15_25 0
x4,15_29 0
x4,15_37 0
x4,15_38 0
x4,15_42 0
x4,15_43 0
x4,15_48 0
x4,15_56 0
x4,15_67 0
x4,15_85 0
x5,6_6 0
x5,6_13 0
x5,6_18 0
x5,6_19 0
x5,6_25 0
x5,6_29 0
x5,6_37 0
x5,6_38 0
x5,6_42 0
x5,6_43 0
x5,6_48 0
x5,6_56 0
x5,6_67 0
x5,6_85 0
x5,7_6 0
x5,7_13 0
x5,7_18 0
x5,7_19 0
x5,7_25 0
x5,7_29 0
x5,7_37 0
x5,7_38 0
x5,7_42 0
x5,7_43 0
x5,7_48 0
x5,7_56 0
x5,7_67 0
x5,7_85 0
x5,8_6 0
x5,8_13 0
x5,8_18 0
x5,8_19 0
x5,8_25 0
x5,8_29 0
x5,8_37 0
x5,8_38 0
x5,8_42 0
x5,8_43 0
x5,8_48 0
x5,8_56 0
x5,8_67 0
x5,8_85 0
x5,9_6 0
x5,9_13 0
x5,9_18 0
x5,9_19 0
x5,9_25 0
x5,9_29 0
x5,9_37 0
x5,9_38 0
x5,9_42 0
x5,9_43 0
x5,9_48 0
x5,9_56 0
x5,9_67 0
x5,9_85 0
x5,10_6 0
x5,10_13 0
x5,10_18 0
x5,10_19 0
x5,10_25 0
x5,10_29 0
x5,10_37 0
x5,10_38 0
x5,10_42 0
x5,10_43 0
x5,10_48 0
x5,10_56 0
x5,10_67 0
x5,10_85 0
x5,11_6 0
x5,11_13 0
x5,11_18 0
x5,11_19 0
x5,11_25 0
x5,11_29 0
x5,11_37 0
x5,11_38 0
x5,11_42 0
x5,11_43 0
x5,11_48 0
x5,11_56 0
x5,11_67 0
x5,11_85 0
x5,12_6 0
x5,12_13 0
x5,12_18 0
x5,12_19 0
x5,12_25 0
x5,12_29 0
x5,12_37 0
x5,12_38 0
x5,12_42 0
x5,12_43 0
x5,12_48 0
x5,12_56 0
x5,12_67 0
x5,12_85 0
x5,13_6 0
x5,13_13 0
x5,13_18 0
x5,13_19 0
x5,13_25 0
x5,13_29 0
x5,13_37 0
x5,13_38 0
x5,13_42 0
x5,13_43 0
x5,13_48 0
x5,13_56 0
x5,13_67 0
x5,13_85 0
x5,14_6 0
x5,14_13 0
x5,14_18 0
x5,14_19 0
x5,14_25 0
x5,14_29 0
x5,14_37 0
x5,14_38 0
x5,14_42 0
x5,14_43 0
x5,14_48 0
x5,14_56 0
x5,14_67 0
x5,14_85 0
x5,15_6 0
x5,15_13 0
x5,15_18 0
x5,15_19 0
x5,15_25 0
x5,15_29 0
x5,15_37 0
x5,15_38 0
x5,15_42 0
x5,15_43 0
x5,15_48 0
x5,15_56 0
x5,15_67 0
x5,15_85 0
x6,7_6 0
x6,7_13 0
x6,7_18 0
x6,7_19 0
x6,7_25 0
x6,7_29 0
x6,7_37 0
x6,7_38 0
x6,7_42 0
x6,7_43 0
x6,7_48 0
x6,7_56 0
x6,7_67 0
x6,7_85 0
x6,8_6 0
x6,8_13 0
x6,8_18 0
x6,8_19 0
x6,8_25 0
x6,8_29 0
x6,8_37 0
x6,8_38 0
x6,8_42 0
x6,8_43 0
x6,8_48 0
x6,8_56 0
x6,8_67 0
x6,8_85 0
x6,9_6 0
x6,9_13 0
x6,9_18 0
x6,9_19 0
x6,9_25 0
x6,9_29 0
x6,9_37 0
x6,9_38 0
x6,9_42 0
x6,9_43 0
x6,9_48 0
x6,9_56 0
x6,9_67 0
x6,9_85 0
x6,10_6 0
x6,10_13 0
x6,10_18 0
x6,10_19 0
x6,10_25 0
x6,10_29 0
x6,10_37 0
x6,10_38 0
x6,10_42 0
x6,10_43 0
x6,10_48 0
x6,10_56 0
x6,10_67 0
x6,10_85 0
x6,11_6 0
x6,11_13 0
x6,11_18 0
x6,11_19 0
x6,11_25 0
x6,11_29 0
x6,11_37 0
x6,11_38 0
x6,11_42 0
x6,11_43 0
x6,11_48 0
x6,11_56 0
x6,11_67 0
x6,11_85 0
x6,12_6 0
x6,12_13 0
x6,12_18 0
x6,12_19 0
x6,12_25 0
x6,12_29 0
x6,12_37 0
x6,12_38 0
x6,12_42 0
x6,12_43 0
x6,12_48 0
x6,12_56 0
x6,12_67 0
x6,12_85 0
x6,13_6 0
x6,13_13 0
x6,13_18 0
x6,13_19 0
x6,13_25 0
x6,13_29 0
x6,13_37 0
x6,13_38 0
x6,13_42 0
x6,13_43 0
x6,13_48 0
x6,13_56 0
x6,13_67 0
x6,13_85 0
x6,14_6 0
x6,14_13 0
x6,14_18 0
x6,14_19 0
x6,14_25 0
x6,14_29 0
x6,14_37 0
x6,14_38 0
x6,14_42 0
x6,14_43 0
x6,14_48 0
x6,14_56 0
x6,14_67 0
x6,14_85 0
x6,15_6 0
x6,15_13 0
x6,15_18 0
x6,15_19 0
x6,15_25 0
x6,15_29 0
x6,15_37 0
x6,15_38 0
x6,15_42 0
x6,15_43 0
x6,15_48 0
x6,15_56 0
x6,15_67 0
x6,15_85 0
x7,8_6 0
x7,8_13 0
x7,8_18 0
x7,8_19 0
x7,8_25 0
x7,8_29 0
x7,8_37 0
x7,8_38 0
x7,8_42 0
x7,8_43 0
x7,8_48 0
x7,8_56 0
x7,8_67 0
x7,8_85 0
x7,9_6 0
x7,9_13 0
x7,9_18 0
x7,9_19 0
x7,9_25 0
x7,9_29 0
x7,9_37 0
x7,9_38 0
x7,9_42 0
x7,9_43 0
x7,9_48 0
x7,9_56 0
x7,9_67 0
x7,9_85 0
x7,10_6 0
x7,10_13 0
x7,10_18 0
x7,10_19 0
x7,10_25 0
x7,10_29 0
x7,10_37 0
x7,10_38 0
x7,10_42 0
x7,10_43 0
x7,10_48 0
x7,10_56 0
x7,10_67 0
x7,10_85 0
x7,11_6 0
x7,11_13 0
x7,11_18 0
x7,11_19 0
x7,11_25 0
x7,11_29 0
x7,11_37 0
x7,11_38 0
x7,11_42 0
x7,11_43 0
x7,11_48 0
x7,11_56 0
x7,11_67 0
x7,11_85 0
x7,12_6 0
x7,12_13 0
x7,12_18 0
x7,12_19 0
x7,12_25 0
x7,12_29 0
x7,12_37 0
x7,12_38 0
x7,12_42 0
x7,12_43 0
x7,12_48 0
x7,12_56 0
x7,12_67 0
x7,12_85 0
x7,13_6 0
x7,13_13 0
x7,13_18 0
x7,13_19 0
x7,13_25 0
x7,13_29 0
x7,13_37 0
x7,13_38 0
x7,13_42 0
x7,13_43 0
x7,13_48 0
x7,13_56 0
x7,13_67 0
x7,13_85 0
x7,14_6 0
x7,14_13 0
x7,14_18 0
x7,14_19 0
x7,14_25 0
x7,14_29 0
x7,14_37 0
x7,14_38 0
x7,14_42 0
x7,14_43 0
x7,14_48 0
x7,14_56 0
x7,14_67 0
x7,14_85 0
x7,15_6 0
x7,15_13 0
x7,15_18 0
x7,15_19 0
x7,15_25 0
x7,15_29 0
x7,15_37 0
x7,15_38 0
x7,15_42 0
x7,15_43 0
x7,15_48 0
x7,15_56 0
x7,15_67 0
x7,15_85 0
x8,9_6 0
x8,9_13 0
x8,9_18 0
x8,9_19 0
x8,9_25 0
x8,9_29 0
x8,9_37 0
x8,9_38 0
x8,9_42 0
x8,9_43 0
x8,9_48 0
x8,9_56 0
x8,9_67 0
x8,9_85 0
x8,10_6 0
x8,10_13 0
x8,10_18 0
x8,10_19 0
x8,10_25 0
x8,10_29 0
x8,10_37 0
x8,10_38 0
x8,10_42 0
x8,10_43 0
x8,10_48 0
x8,10_56 0
x8,10_67 0
x8,10_85 0
x8,11_6 0
x8,11_13 0
x8,11_18 0
x8,11_19 0
x8,11_25 0
x8,11_29 0
x8,11_37 0
x8,11_38 0
x8,11_42 0
x8,11_43 0
x8,11_48 0
x8,11_56 0
x8,11_67 0
x8,11_85 0
x8,12_6 0
x8,12_13 0
x8,12_18 0
x8,12_19 0
x8,12_25 0
x8,12_29 0
x8,12_37 0
x8,12_38 0
x8,12_42 0
x8,12_43 0
x8,12_48 0
x8,12_56 0
x8,12_67 0
x8,12_85 0
x8,13_6 0
x8,13_13 0
x8,13_18 0
x8,13_19 0
x8,13_25 0
x8,13_29 0
x8,13_37 0
x8,13_38 0
x8,13_42 0
x8,13_43 0
x8,13_48 0
x8,13_56 0
x8,13_67 0
x8,13_85 0
x8,14_6 0
x8,14_13 0
x8,14_18 0
x8,14_19 0
x8,14_25 0
x8,14_29 0
x8,14_37 0
x8,14_38 0
x8,14_42 0
x8,14_43 0
x8,14_48 0
x8,14_56 0
x8,14_67 0
x8,14_85 0
x8,15_6 0
x8,15_13 0
x8,15_18 0
x8,15_19 0
x8,15_25 0
x8,15_29 0
x8,15_37 0
x8,15_38 0
x8,15_42 0
x8,15_43 0
x8,15_48 0
x8,15_56 0
x8,15_67 0
x8,15_85 0
x9,10_6 0
x9,10_13 0
x9,10_18 0
x9,10_19 0
x9,10_25 0
x9,10_29 0
x9,10_37 0
x9,10_38 0
x9,10_42 0
x9,10_43 0
x9,10_48 0
x9,10_56 0
x9,10_67 0
x9,10_85 0
x9,11_6 0
x9,11_13 0
x9,11_18 0
x9,11_19 0
x9,11_25 0
x9,11_29 0
x9,11_37 0
x9,11_38 0
x9,11_42 0
x9,11_43 0
x9,11_48 0
x9,11_56 0
x9,11_67 0
x9,11_85 0
x9,12_6 0
x9,12_13 0
x9,12_18 0
x9,12_19 0
x9,12_25 0
x9,12_29 0
x9,12_37 0
x9,12_38 0
x9,12_42 0
x9,12_43 0
x9,12_48 0
x9,12_56 0
x9,12_67 0
x9,12_85 0
x9,13_6 0
x9,13_13 0
x9,13_18 0
x9,13_19 0
x9,13_25 0
x9,13_29 0
x9,13_37 0
x9,13_38 0
x9,13_42 0
x9,13_43 0
x9,13_48 0
x9,13_56 0
x9,13_67 0
x9,13_85 0
x9,14_6 0
x9,14_13 0
x9,14_18 0
x9,14_19 0
x9,14_25 0
x9,14_29 0
x9,14_37 0
x9,14_38 0
x9,14_42 0
x9,14_43 0
x9,14_48 0
x9,14_56 0
x9,14_67 0
x9,14_85 0
x9,15_6 0
x9,15_13 0
x9,15_18 0
x9,15_19 0
x9,15_25 0
x9,15_29 0
x9,15_37 0
x9,15_38 0
x9,15_42 0
x9,15_43 0
x9,15_48 0
x9,15_56 0
x9,15_67 0
x9,15_85 0
x10,11_6 0
x10,11_13 0
x10,11_18 0
x10,11_19 0
x10,11_25 0
x10,11_29 0
x10,11_37 0
x10,11_38 0
x10,11_42 0
x10,11_43 0
x10,11_48 0
x10,11_56 0
x10,11_67 0
x10,11_85 0
x10,12_6 0
x10,12_13 0
x10,12_18 0
x10,12_19 0
x10,12_25 0
x10,12_29 0
x10,12_37 0
x10,12_38 0
x10,12_42 0
x10,12_43 0
x10,12_48 0
x10,12_56 0
x10,12_67 0
x10,12_85 0
x10,13_6 0
x10,13_13 0
x10,13_18 0
x10,13_19 0
x10,13_25 0
x10,13_29 0
x10,13_37 0
x10,13_38 0
x10,13_42 0
x10,13_43 0
x10,13_48 0
x10,13_56 0
x10,13_67 0
x10,13_85 0
x10,14_6 0
x10,14_13 0
x10,14_18 0
x10,14_19 0
x10,14_25 0
x10,14_29 0
x10,14_37 0
x10,14_38 0
x10,14_42 0
x10,14_43 0
x10,14_48 0
x10,14_56 0
x10,14_67 0
x10,14_85 0
x10,15_6 0
x10,15_13 0
x10,15_18 0
x10,15_19 0
x10,15_25 0
x10,15_29 0
x10,15_37 0
x10,15_38 0
x10,15_42 0
x10,15_43 0
x10,15_48 0
x10,15_56 0
x10,15_67 0
x10,15_85 0
x11,12_6 0
x11,12_13 0
x11,12_18 0
x11,12_19 0
x11,12_25 0
x11,12_29 0
x11,12_37 0
x11,12_38 0
x11,12_42 0
x11,12_43 0
x11,12_48 0
x11,12_56 0
x11,12_67 0
x11,12_85 0
x11,13_6 0
x11,13_13 0
x11,13_18 0
x11,13_19 0
x11,13_25 0
x11,13_29 0
x11,13_37 0
x11,13_38 0
x11,13_42 0
x11,13_43 0
x11,13_48 0
x11,13_56 0
x11,13_67 0
x11,13_85 0
x11,14_6 0
x11,14_13 0
x11,14_18 0
x11,14_19 0
x11,14_25 0
x11,14_29 0
x11,14_37 0
x11,14_38 0
x11,14_42 0
x11,14_43 0
x11,14_48 0
x11,14_56 0
x11,14_67 0
x11,14_85 0
x11,15_6 0
x11,15_13 0
x11,15_18 0
x11,15_19 0
x11,15_25 0
x11,15_29 0
x11,15_37 0
x11,15_38 0
x11,15_42 0
x11,15_43 0
x11,15_48 0
x11,15_56 0
x11,15_67 0
x11,15_85 0
x12,13_6 0
x12,13_13 0
x12,13_18 0
x12,13_19 0
x12,13_25 0
x12,13_29 0
x12,13_37 0
x12,13_38 0
x12,13_42 0
x12,13_43 0
x12,13_48 0
x12,13_56 0
x12,13_67 0
x12,13_85 0
x12,14_6 0
x12,14_13 0
x12,14_18 0
x12,14_19 0
x12,14_25 0
x12,14_29 0
x12,14_37 0
x12,14_38 0
x12,14_42 0
x12,14_43 0
x12,14_48 0
x12,14_56 0
x12,14_67 0
x12,14_85 0
x12,15_6 0
x12,15_13 0
x12,15_18 0
x12,15_19 0
x12,15_25 0
x12,15_29 0
x12,15_37 0
x12,15_38 0
x12,15_42 0
x12,15_43 0
x12,15_48 0
x12,15_56 0
x12,15_67 0
x12,15_85 0
x13,14_6 0
x13,14_13 0
x13,14_18 0
x13,14_19 0
x13,14_25 0
x13,14_29 0
x13,14_37 0
x13,14_38 0
x13,14_42 0
x13,14_43 0
x13,14_48 0
x13,14_56 0
x13,14_67 0
x13,14_85 0
x13,15_6 0
x13,15_13 0
x13,15_18 0
x13,15_19 0
x13,15_25 0
x13,15_29 0
x13,15_37 0
x13,15_38 0
x13,15_42 0
x13,15_43 0
x13,15_48 0
x13,15_56 0
x13,15_67 0
x13,15_85 0
x14,15_6 0
x14,15_13 0
x14,15_18 0
x14,15_19 0
x14,15_25 0
x14,15_29 0
x14,15_37 0
x14,15_38 0
x14,15_42 0
x14,15_43 0
x14,15_48 0
x14,15_56 0
x14,15_67 0
x14,15_85 0
z0 1
z1 1
z2 1
z3 1
z4 1
z5 1
z6 0
z7 0
z8 0
z9 0
z10 0
z11 0
z12 0
z13 0
z14 0
z15 0
p0 0
p1 18
p2 37
p3 43
p4 56
p5 85
p6 86
p7 87
p8 88
p9 89
p10 90
p11 91
p12 92
p13 93
p14 94
p15 95
